c Reduced graph for GEOM100b_2 generated by Cyril Grelier
p edge 90 985
e 1 2
e 1 3
e 1 4
e 1 6
e 1 7
e 1 8
e 1 9
e 1 10
e 1 12
e 1 14
e 1 18
e 1 32
e 1 33
e 1 35
e 1 36
e 1 37
e 1 39
e 1 40
e 1 41
e 1 44
e 1 46
e 1 48
e 1 63
e 1 64
e 1 65
e 1 66
e 1 67
e 1 68
e 1 69
e 1 70
e 1 71
e 1 72
e 1 73
e 1 74
e 1 75
e 1 76
e 1 83
e 2 3
e 2 4
e 2 7
e 2 8
e 2 9
e 2 10
e 2 14
e 2 18
e 2 32
e 2 36
e 2 39
e 2 40
e 2 41
e 2 44
e 2 46
e 2 48
e 2 49
e 2 54
e 2 63
e 2 64
e 2 67
e 2 68
e 2 71
e 2 72
e 2 73
e 2 74
e 2 75
e 2 76
e 2 83
e 2 84
e 2 89
e 3 4
e 3 6
e 3 7
e 3 8
e 3 9
e 3 10
e 3 12
e 3 13
e 3 14
e 3 32
e 3 36
e 3 37
e 3 39
e 3 40
e 3 41
e 3 46
e 3 63
e 3 64
e 3 66
e 3 67
e 3 68
e 3 69
e 3 70
e 3 71
e 3 72
e 3 73
e 3 74
e 3 75
e 3 76
e 3 83
e 4 6
e 4 7
e 4 9
e 4 10
e 4 11
e 4 12
e 4 14
e 4 16
e 4 18
e 4 32
e 4 33
e 4 34
e 4 35
e 4 36
e 4 37
e 4 39
e 4 40
e 4 43
e 4 63
e 4 64
e 4 65
e 4 66
e 4 67
e 4 68
e 4 70
e 4 71
e 4 73
e 4 74
e 4 79
e 5 7
e 5 10
e 5 13
e 5 14
e 5 15
e 5 17
e 5 19
e 5 20
e 5 22
e 5 23
e 5 25
e 5 27
e 5 36
e 5 38
e 5 42
e 5 45
e 5 47
e 5 50
e 5 51
e 5 53
e 5 64
e 5 66
e 5 68
e 5 69
e 5 71
e 5 77
e 5 78
e 5 82
e 5 85
e 5 87
e 5 88
e 6 7
e 6 11
e 6 12
e 6 14
e 6 16
e 6 21
e 6 24
e 6 26
e 6 33
e 6 34
e 6 35
e 6 36
e 6 37
e 6 39
e 6 43
e 6 52
e 6 57
e 6 63
e 6 64
e 6 65
e 6 66
e 6 67
e 6 68
e 6 70
e 6 79
e 6 80
e 6 81
e 6 90
e 7 8
e 7 10
e 7 12
e 7 13
e 7 14
e 7 16
e 7 32
e 7 33
e 7 34
e 7 35
e 7 36
e 7 37
e 7 63
e 7 64
e 7 65
e 7 66
e 7 67
e 7 68
e 7 69
e 7 70
e 7 71
e 7 75
e 7 76
e 8 9
e 8 23
e 8 32
e 8 40
e 8 41
e 8 46
e 8 49
e 8 54
e 8 55
e 8 58
e 8 60
e 8 62
e 8 64
e 8 69
e 8 71
e 8 72
e 8 73
e 8 74
e 8 75
e 8 76
e 8 83
e 8 84
e 8 86
e 8 89
e 9 18
e 9 32
e 9 40
e 9 41
e 9 44
e 9 46
e 9 48
e 9 49
e 9 54
e 9 55
e 9 58
e 9 60
e 9 62
e 9 72
e 9 73
e 9 74
e 9 75
e 9 76
e 9 83
e 9 84
e 9 86
e 9 89
e 10 12
e 10 13
e 10 14
e 10 15
e 10 17
e 10 19
e 10 20
e 10 23
e 10 36
e 10 37
e 10 38
e 10 42
e 10 45
e 10 64
e 10 66
e 10 68
e 10 69
e 10 70
e 10 71
e 10 75
e 10 76
e 11 12
e 11 16
e 11 24
e 11 26
e 11 31
e 11 33
e 11 34
e 11 35
e 11 36
e 11 37
e 11 39
e 11 43
e 11 52
e 11 57
e 11 59
e 11 63
e 11 65
e 11 67
e 11 68
e 11 70
e 11 79
e 11 80
e 11 81
e 11 90
e 12 14
e 12 16
e 12 17
e 12 21
e 12 26
e 12 33
e 12 34
e 12 35
e 12 36
e 12 37
e 12 56
e 12 63
e 12 64
e 12 65
e 12 66
e 12 68
e 12 70
e 12 71
e 12 77
e 13 14
e 13 15
e 13 19
e 13 20
e 13 23
e 13 28
e 13 36
e 13 38
e 13 42
e 13 45
e 13 53
e 13 64
e 13 66
e 13 68
e 13 69
e 13 71
e 13 75
e 13 76
e 13 82
e 13 83
e 13 85
e 13 88
e 14 15
e 14 16
e 14 17
e 14 21
e 14 36
e 14 37
e 14 38
e 14 45
e 14 64
e 14 65
e 14 66
e 14 68
e 14 69
e 14 70
e 14 71
e 14 77
e 15 17
e 15 19
e 15 20
e 15 22
e 15 23
e 15 25
e 15 27
e 15 28
e 15 38
e 15 42
e 15 45
e 15 47
e 15 50
e 15 51
e 15 53
e 15 66
e 15 69
e 15 71
e 15 78
e 15 82
e 15 85
e 15 88
e 16 17
e 16 21
e 16 24
e 16 26
e 16 30
e 16 33
e 16 34
e 16 35
e 16 36
e 16 37
e 16 56
e 16 57
e 16 63
e 16 64
e 16 65
e 16 66
e 16 68
e 16 70
e 16 77
e 17 19
e 17 21
e 17 22
e 17 29
e 17 30
e 17 37
e 17 38
e 17 42
e 17 47
e 17 50
e 17 51
e 17 56
e 17 61
e 17 66
e 17 77
e 17 78
e 17 87
e 18 32
e 18 33
e 18 35
e 18 39
e 18 40
e 18 41
e 18 43
e 18 44
e 18 48
e 18 52
e 18 55
e 18 63
e 18 67
e 18 72
e 18 73
e 18 74
e 18 79
e 18 84
e 19 20
e 19 22
e 19 25
e 19 27
e 19 38
e 19 42
e 19 45
e 19 47
e 19 50
e 19 51
e 19 53
e 19 69
e 19 78
e 19 82
e 19 85
e 19 88
e 20 23
e 20 27
e 20 28
e 20 38
e 20 42
e 20 45
e 20 53
e 20 58
e 20 69
e 20 71
e 20 75
e 20 76
e 20 82
e 20 83
e 20 85
e 20 88
e 21 26
e 21 30
e 21 36
e 21 37
e 21 47
e 21 50
e 21 51
e 21 56
e 21 65
e 21 66
e 21 68
e 21 70
e 21 77
e 21 87
e 22 25
e 22 27
e 22 29
e 22 38
e 22 42
e 22 47
e 22 50
e 22 51
e 22 53
e 22 61
e 22 77
e 22 78
e 22 82
e 22 85
e 22 87
e 23 28
e 23 45
e 23 46
e 23 58
e 23 69
e 23 71
e 23 75
e 23 76
e 23 83
e 23 88
e 23 89
e 24 26
e 24 31
e 24 33
e 24 34
e 24 35
e 24 57
e 24 59
e 24 63
e 24 65
e 24 70
e 24 80
e 24 81
e 24 90
e 25 27
e 25 29
e 25 38
e 25 42
e 25 47
e 25 50
e 25 51
e 25 53
e 25 61
e 25 78
e 25 82
e 25 85
e 26 30
e 26 34
e 26 37
e 26 56
e 26 57
e 26 65
e 26 70
e 26 80
e 26 90
e 27 38
e 27 42
e 27 45
e 27 47
e 27 53
e 27 78
e 27 82
e 27 85
e 27 88
e 28 45
e 28 46
e 28 58
e 28 69
e 28 75
e 28 76
e 28 83
e 28 88
e 28 89
e 29 42
e 29 47
e 29 50
e 29 51
e 29 61
e 29 77
e 29 78
e 29 87
e 30 50
e 30 56
e 30 61
e 30 77
e 30 87
e 31 34
e 31 52
e 31 57
e 31 59
e 31 80
e 31 81
e 31 90
e 32 36
e 32 39
e 32 40
e 32 41
e 32 44
e 32 46
e 32 48
e 32 49
e 32 54
e 32 55
e 32 63
e 32 64
e 32 67
e 32 68
e 32 72
e 32 73
e 32 74
e 32 75
e 32 76
e 32 84
e 32 86
e 33 34
e 33 35
e 33 36
e 33 37
e 33 39
e 33 43
e 33 52
e 33 57
e 33 59
e 33 63
e 33 64
e 33 65
e 33 67
e 33 68
e 33 70
e 33 73
e 33 79
e 33 80
e 33 81
e 33 90
e 34 35
e 34 36
e 34 37
e 34 39
e 34 43
e 34 52
e 34 57
e 34 59
e 34 63
e 34 64
e 34 65
e 34 66
e 34 67
e 34 68
e 34 70
e 34 79
e 34 80
e 34 81
e 34 90
e 35 36
e 35 37
e 35 39
e 35 43
e 35 52
e 35 57
e 35 59
e 35 63
e 35 64
e 35 65
e 35 67
e 35 68
e 35 70
e 35 79
e 35 80
e 35 81
e 35 90
e 36 37
e 36 63
e 36 64
e 36 65
e 36 66
e 36 67
e 36 68
e 36 70
e 36 71
e 36 77
e 37 56
e 37 63
e 37 64
e 37 65
e 37 66
e 37 68
e 37 70
e 37 71
e 37 77
e 37 87
e 38 42
e 38 45
e 38 47
e 38 50
e 38 51
e 38 53
e 38 66
e 38 69
e 38 71
e 38 77
e 38 78
e 38 82
e 38 85
e 38 87
e 38 88
e 39 40
e 39 43
e 39 44
e 39 48
e 39 52
e 39 63
e 39 64
e 39 65
e 39 67
e 39 70
e 39 73
e 39 74
e 39 79
e 39 81
e 40 41
e 40 43
e 40 44
e 40 48
e 40 49
e 40 54
e 40 55
e 40 60
e 40 63
e 40 67
e 40 72
e 40 73
e 40 74
e 40 84
e 40 86
e 41 44
e 41 46
e 41 48
e 41 49
e 41 54
e 41 55
e 41 60
e 41 62
e 41 72
e 41 73
e 41 74
e 41 75
e 41 76
e 41 84
e 41 86
e 42 45
e 42 47
e 42 50
e 42 51
e 42 53
e 42 69
e 42 78
e 42 82
e 42 85
e 42 88
e 43 44
e 43 48
e 43 52
e 43 59
e 43 63
e 43 65
e 43 67
e 43 73
e 43 74
e 43 79
e 43 80
e 43 81
e 44 48
e 44 52
e 44 54
e 44 55
e 44 63
e 44 67
e 44 72
e 44 73
e 44 74
e 44 79
e 44 84
e 44 86
e 45 53
e 45 66
e 45 69
e 45 71
e 45 75
e 45 78
e 45 82
e 45 85
e 45 88
e 46 49
e 46 54
e 46 58
e 46 60
e 46 62
e 46 69
e 46 72
e 46 75
e 46 76
e 46 83
e 46 86
e 46 89
e 47 50
e 47 51
e 47 53
e 47 56
e 47 61
e 47 77
e 47 78
e 47 82
e 47 85
e 47 87
e 48 54
e 48 55
e 48 63
e 48 67
e 48 72
e 48 73
e 48 74
e 48 79
e 48 84
e 48 86
e 49 54
e 49 55
e 49 58
e 49 60
e 49 62
e 49 72
e 49 75
e 49 76
e 49 83
e 49 84
e 49 86
e 49 89
e 50 51
e 50 56
e 50 61
e 50 77
e 50 78
e 50 82
e 50 87
e 51 53
e 51 56
e 51 61
e 51 77
e 51 78
e 51 82
e 51 87
e 52 59
e 52 63
e 52 65
e 52 67
e 52 73
e 52 79
e 52 80
e 52 81
e 53 69
e 53 78
e 53 82
e 53 85
e 53 88
e 54 55
e 54 60
e 54 62
e 54 72
e 54 73
e 54 74
e 54 84
e 54 86
e 55 60
e 55 62
e 55 72
e 55 73
e 55 74
e 55 84
e 55 86
e 56 61
e 56 66
e 56 70
e 56 77
e 56 87
e 57 59
e 57 65
e 57 80
e 57 81
e 57 90
e 58 69
e 58 71
e 58 72
e 58 75
e 58 76
e 58 83
e 58 89
e 59 79
e 59 80
e 59 81
e 59 90
e 60 62
e 60 72
e 60 74
e 60 84
e 60 86
e 61 77
e 61 78
e 61 87
e 62 72
e 62 84
e 62 86
e 62 89
e 63 64
e 63 65
e 63 66
e 63 67
e 63 68
e 63 70
e 63 73
e 63 74
e 63 79
e 63 80
e 63 81
e 64 65
e 64 66
e 64 67
e 64 68
e 64 69
e 64 70
e 64 71
e 64 75
e 64 76
e 65 66
e 65 67
e 65 68
e 65 70
e 65 80
e 65 81
e 65 90
e 66 68
e 66 69
e 66 70
e 66 71
e 66 77
e 66 87
e 67 68
e 67 70
e 67 73
e 67 74
e 67 79
e 67 80
e 67 81
e 68 70
e 68 71
e 68 77
e 69 71
e 69 75
e 69 76
e 69 83
e 69 85
e 69 88
e 69 89
e 70 71
e 70 77
e 71 75
e 71 76
e 71 83
e 72 73
e 72 74
e 72 75
e 72 76
e 72 83
e 72 84
e 72 86
e 72 89
e 73 74
e 73 79
e 73 84
e 73 86
e 74 79
e 74 84
e 74 86
e 75 76
e 75 83
e 75 89
e 76 83
e 76 89
e 77 78
e 77 87
e 78 82
e 78 85
e 78 87
e 79 80
e 79 81
e 80 81
e 80 90
e 81 90
e 82 85
e 82 88
e 83 89
e 84 86
e 85 88
